% File represents an instance of a Composite Structure problem to be solved by a CP framework
% Created on 2025-03-26 10:41:21.184
T = 58;
n = 16;
m = 24;
edges = [(2, 1),
(5, 6),
(9, 10),
(14, 13),
(2, 3),
(7, 6),
(10, 11),
(14, 15),
(3, 4),
(7, 8),
(12, 11),
(16, 15),
(5, 1),
(9, 5),
(9, 13),
(2, 6),
(10, 6),
(10, 14),
(7, 3),
(7, 11),
(11, 15),
(8, 4),
(12, 8),
(12, 16)];
counts = [|12, 14, 12, 16,
|12, 18, 12, 16,
|10, 18, 10, 16,
|8, 16, 8, 16,
|12, 16, 12, 16,
|12, 16, 12, 14,
|12, 18, 12, 16,
|10, 16, 10, 16,
|12, 18, 12, 16,
|12, 18, 12, 14,
|12, 18, 12, 12,
|12, 18, 12, 16,
|12, 18, 12, 10,
|12, 18, 12, 12,
|10, 18, 10, 12,
|12, 18, 12, 12|];
